254	52	4	178	
13	14	14	13

0	0	0	0	0	0	3	1	2	3
1	1	9	8	10	2	1	4
2	3	2	4	4	9	1	5
3	1	8	10	1	6	1	7
4	4	2	3	5	5	1	13
5	4	7	6	4	5	1	6
6	5	6	7	5	3	1	8
7	8	9	2	5	4	1	9
8	8	6	6	6	7	1	12
9	2	6	9	8	10	1	10
10	10	2	3	3	2	1	11
11	7	3	10	6	6	1	16
12	4	8	10	3	2	1	14
13	8	10	9	7	9	1	18
14	4	9	6	6	10	1	15
15	6	2	4	5	6	1	23
16	3	7	7	6	5	1	17
17	3	2	4	5	3	2	19	50
18	7	5	10	3	4	1	20
19	8	10	1	1	8	1	21
20	5	10	5	3	5	1	47
21	1	1	2	2	6	1	22
22	3	6	7	8	4	1	25
23	7	8	5	6	1	1	24
24	6	5	7	6	5	1	28
25	9	9	3	7	9	1	26
26	1	2	5	4	9	1	27
27	8	1	9	6	1	1	32
28	7	2	5	3	4	1	29
29	7	3	4	5	1	1	30
30	7	4	10	2	8	1	31
31	10	10	7	3	7	1	35
32	2	2	9	7	2	1	33
33	2	3	3	9	8	1	34
34	6	9	5	9	3	2	35	46
35	6	8	1	7	5	1	36
36	9	2	4	7	2	1	37
37	6	4	3	6	10	1	38
38	2	10	5	10	4	1	39
39	4	1	1	2	4	1	40
40	2	8	2	3	4	1	41
41	6	7	6	4	9	1	42
42	5	8	3	4	1	1	43
43	9	9	9	9	10	1	44
44	1	2	3	5	2	1	45
45	8	4	4	5	2	1	48
46	1	8	1	9	4	1	49
47	4	1	4	3	7	1	51
48	5	10	6	3	2	1	51
49	8	7	4	10	6	1	51
50	5	7	6	10	3	1	51
51	0	0	0	0	0	0
